(set-logic QF_S)
(set-option :strings-exp true)
(set-option :produce-models true)
(declare-fun x_2 () String)
(declare-fun epsilon () String)
(declare-fun literal_0 () String)
(declare-fun literal_1 () String)
(declare-fun x_3 () String)
(assert (= epsilon ""))
(assert (= literal_0 "\x69\x6e\x63\x6c\x75\x64\x65\x2f"))
(assert (or (= x_2 epsilon) (= x_2 literal_0)))
(assert (= literal_1 "\x66\x75\x6e\x63\x2e\x70\x68\x70"))
(assert (= x_3 (str.++ x_2 literal_1)))
(assert (str.in.re x_3 (re.++ (re.* re.allchar) (re.++ (str.to.re "\x2f\x65\x76\x69\x6c") (re.* re.allchar)))))
(check-sat)
(get-model)
